
Gurobi 13.0.1 (win64) logging started Thu Apr 23 20:40:32 2026

Set parameter LogFile to value "C:\Users\David\OneDrive\TAIDUC\0. DATASET. MATERIAL\Optimization , Simulation, Operation Research - Exercise & Problem\Procurement - Vendor quantity selection\debugs\logs\02_Relaxation_20260423_2040.log"
Gurobi Optimizer version 13.0.1 build v13.0.1rc0 (win64 - Windows 11+.0 (26200.2))

CPU model: Intel(R) Core(TM) i5-8265U CPU @ 1.60GHz, instruction set [SSE2|AVX|AVX2]
Thread count: 4 physical cores, 8 logical processors, using up to 8 threads

Non-default parameters:
LogToConsole  0

Optimize a model with 731 rows, 1053 columns and 3076 nonzeros (Min)
Model fingerprint: 0xe68e52e2
Model has 194 linear objective coefficients
Variable types: 859 continuous, 194 integer (194 binary)
Coefficient statistics:
  Matrix range     [1e+00, 1e+05]
  Objective range  [6e+00, 2e+01]
  Bounds range     [1e+00, 1e+00]
  RHS range        [1e+00, 2e+05]

Loaded user MIP start with objective 969283
MIP start from previous solve produced solution with objective 899499 (0.00s)
MIP start from previous solve produced solution with objective 899499 (0.00s)
Loaded MIP start from previous solve with objective 899499

Presolve removed 245 rows and 261 columns
Presolve time: 0.06s
Presolved: 486 rows, 792 columns, 2501 nonzeros
Variable types: 617 continuous, 175 integer (175 binary)

Root relaxation: objective 7.940800e+05, 450 iterations, 0.01 seconds (0.01 work units)

    Nodes    |    Current Node    |     Objective Bounds      |     Work
 Expl Unexpl |  Obj  Depth IntInf | Incumbent    BestBd   Gap | It/Node Time

     0     0 794080.004    0   20 899498.942 794080.004  11.7%     -    0s
H    0     0                    886473.61248 794080.004  10.4%     -    0s
H    0     0                    884659.76404 794080.004  10.2%     -    0s
H    0     0                    849167.60000 794080.004  6.49%     -    0s
H    0     0                    841177.60000 794080.004  5.60%     -    0s
H    0     0                    828055.02061 800110.448  3.37%     -    0s
H    0     0                    827801.14404 800110.448  3.35%     -    0s
     0     0 827245.414    0   19 827801.144 827245.414  0.07%     -    0s
H    0     0                    827245.41404 827245.414  0.00%     -    0s
     0     0 827245.414    0   17 827245.414 827245.414  0.00%     -    0s

Cutting planes:
  Gomory: 1
  Cover: 7
  Implied bound: 1
  MIR: 4
  StrongCG: 1
  GUB cover: 4

Explored 1 nodes (608 simplex iterations) in 0.22 seconds (0.06 work units)
Thread count was 8 (of 8 available processors)

Solution count 8: 827245 827801 828055 ... 899499

Optimal solution found (tolerance 1.00e-04)
Best objective 8.272454140436e+05, best bound 8.272454140436e+05, gap 0.0000%
